Maximize
  - 3.7422713755 edge_0_1_0_0 - 2.8911894617012 edge_0_3_0_0
   - 0.6931785461865599 edge_0_5_0_0 - 2.892629085073 edge_0_7_0_0
   - 1.264536619788 edge_0_8_0_0 - 1.53101522496 edge_0_9_0_0
   - 1.161672731689831 edge_1_3_0_0 - 0.7444071122357604 edge_1_5_0_0
   - 0.3554826194437421 edge_1_7_0_0 - 0.3159885091138739 edge_1_8_0_0
   - 0.690688873499681 edge_1_9_0_0 - 0.5718710413155741 edge_1_15_0_0
   - 0.8806771434653595 edge_1_17_0_0 - 0.4946042236591257 edge_3_1_0_0
   + 0.6845843665578343 edge_3_5_0_0 + 0.0941224957878836 edge_3_7_0_0
   + 0.6312956852694511 edge_3_8_0_0 + 0.3212371952358683 edge_3_9_0_0
   + 0.2832382272540196 edge_3_11_0_0 + 0.3505420688810617 edge_3_12_0_0
   + 0.2560868816090041 edge_3_14_0_0 + 0.5376905990175379 edge_3_15_0_0
   - 0.2039757934560863 edge_3_16_0_0 - 0.0254792965384389 edge_3_17_0_0
   + 1.577866612185412 edge_5_1_0_0 + 2.817862749712222 edge_5_3_0_0
   + 0.9199352563013903 edge_5_7_0_0 + 0.8393853563992166 edge_5_8_0_0
   + 0.7426596081650821 edge_5_9_0_0 + 0.8665439688078562 edge_5_11_0_0
   + 1.013274324697446 edge_5_12_0_0 + 0.9503349732654565 edge_5_14_0_0
   + 0.7561538199133102 edge_5_15_0_0 + 0.5155598667169322 edge_5_16_0_0
   + 3.850428600071115 edge_5_17_0_0 - 0.2991275570750033 edge_7_1_0_0
   + 0.258873630016597 edge_7_3_0_0 + 0.6551511273391736 edge_7_5_0_0
   + 0.4647609092061798 edge_7_8_0_0 - 0.1639734694396761 edge_7_9_0_0
   - 0.1577597908677563 edge_7_11_0_0 - 0.5983124237958617 edge_7_12_0_0
   - 0.7832832361867403 edge_7_14_0_0 - 0.0359619605455362 edge_7_15_0_0
   - 0.7217189666819431 edge_7_16_0_0 - 0.4203837834555151 edge_7_17_0_0
   + 0.2804034809985431 edge_8_1_0_0 + 0.2964385755892829 edge_8_3_0_0
   + 0.2866241103356614 edge_8_5_0_0 + 1.155168823620837 edge_8_7_0_0
   + 0.173590408679122 edge_8_8_0_0 + 0.0662805952393889 edge_8_9_0_0
   + 0.0290860853751445 edge_8_11_0_0 - 0.0960129147950035 edge_8_12_0_0
   - 0.158036193509257 edge_8_14_0_0 + 0.0953065922682053 edge_8_15_0_0
   - 0.1982976821462907 edge_8_16_0_0 + 0.1154828001199356 edge_8_17_0_0
   - 0.2132141942007491 edge_9_1_0_0 + 0.3696472172086839 edge_9_3_0_0
   - 0.1221094966082565 edge_9_5_0_0 - 0.0501468615313088 edge_9_7_0_0
   + 0.2617278641739351 edge_9_8_0_0 + 1.200598721853139 edge_9_11_0_0
   + 1.249456499439989 edge_9_12_0_0 + 0.6321703999026346 edge_9_14_0_0
   + 0.7096204279825654 edge_9_15_0_0 + 0.9746655297460214 edge_9_16_0_0
   + 0.6595030527764265 edge_9_17_0_0 - 1.349554112405366 edge_11_5_0_0
   - 0.4346233218338664 edge_11_8_0_0 - 0.1862256072990541 edge_11_9_0_0
   + 0.0388192969197214 edge_11_12_0_0 - 0.6801623629271021 edge_11_14_0_0
   + 0.1085211172354557 edge_11_15_0_0 - 0.5348910140782437 edge_11_16_0_0
   - 0.2420218554991254 edge_11_17_0_0 - 1.553500120930691 edge_12_1_0_0
   - 0.933916236241521 edge_12_3_0_0 - 1.605287570510598 edge_12_5_0_0
   - 0.4171858519361812 edge_12_8_0_0 - 0.2085634520355417 edge_12_9_0_0
   + 0.593199123365419 edge_12_11_0_0 + 1.240465064665738 edge_12_14_0_0
   + 1.464096447528616 edge_12_15_0_0 + 1.987372463309352 edge_12_16_0_0
   + 1.525177630727548 edge_12_17_0_0 - 0.5888994678948897 edge_14_1_0_0
   + 0.0757929194855607 edge_14_3_0_0 - 0.0386175178111406 edge_14_5_0_0
   - 0.1919072006979356 edge_14_7_0_0 - 0.00738522311815052 edge_14_8_0_0
   + 0.5745294564162076 edge_14_9_0_0 - 0.0519597901985571 edge_14_11_0_0
   + 0.8463508098442203 edge_14_12_0_0 + 0.810825199651097 edge_14_15_0_0
   + 2.641520461140527 edge_14_16_0_0 + 1.504288161176484 edge_14_17_0_0
   - 0.7022425598011186 edge_15_11_0_0 - 0.4718545086311282 edge_15_12_0_0
   - 0.3237918435428518 edge_15_14_0_0 + 0.233232301032032 edge_15_16_0_0
   - 1.623018164137392 edge_16_1_0_0 - 1.089643940058475 edge_16_3_0_0
   - 0.7137207220662366 edge_16_8_0_0 - 0.5533071195814646 edge_16_11_0_0
   - 0.0945549822261644 edge_16_12_0_0 + 0.2262986562609306 edge_16_14_0_0
   + 0.3806640736283143 edge_16_15_0_0 + 0.0875879383291336 edge_16_17_0_0
   - 1.41873883445399 edge_17_14_0_0 - 1.429014066401543 edge_17_16_0_0
Subject To
 one_parent_1: edge_0_1_0_0 + edge_3_1_0_0 + edge_5_1_0_0 + edge_7_1_0_0
   + edge_8_1_0_0 + edge_9_1_0_0 + edge_12_1_0_0 + edge_14_1_0_0
   + edge_16_1_0_0 = 1
 consume_one_flow_unit_1: flow_0_1_0_0 - flow_1_3_0_0 - flow_1_5_0_0
   - flow_1_7_0_0 - flow_1_8_0_0 - flow_1_9_0_0 - flow_1_15_0_0
   - flow_1_17_0_0 + flow_3_1_0_0 + flow_5_1_0_0 + flow_7_1_0_0
   + flow_8_1_0_0 + flow_9_1_0_0 + flow_12_1_0_0 + flow_14_1_0_0
   + flow_16_1_0_0 = 1
 one_parent_2: = 1
 consume_one_flow_unit_2: = 1
 one_parent_3: edge_0_3_0_0 + edge_1_3_0_0 + edge_5_3_0_0 + edge_7_3_0_0
   + edge_8_3_0_0 + edge_9_3_0_0 + edge_12_3_0_0 + edge_14_3_0_0
   + edge_16_3_0_0 = 1
 consume_one_flow_unit_3: flow_0_3_0_0 + flow_1_3_0_0 - flow_3_1_0_0
   - flow_3_5_0_0 - flow_3_7_0_0 - flow_3_8_0_0 - flow_3_9_0_0
   - flow_3_11_0_0 - flow_3_12_0_0 - flow_3_14_0_0 - flow_3_15_0_0
   - flow_3_16_0_0 - flow_3_17_0_0 + flow_5_3_0_0 + flow_7_3_0_0
   + flow_8_3_0_0 + flow_9_3_0_0 + flow_12_3_0_0 + flow_14_3_0_0
   + flow_16_3_0_0 = 1
 one_parent_4: = 1
 consume_one_flow_unit_4: = 1
 one_parent_5: edge_0_5_0_0 + edge_1_5_0_0 + edge_3_5_0_0 + edge_7_5_0_0
   + edge_8_5_0_0 + edge_9_5_0_0 + edge_11_5_0_0 + edge_12_5_0_0
   + edge_14_5_0_0 = 1
 consume_one_flow_unit_5: flow_0_5_0_0 + flow_1_5_0_0 + flow_3_5_0_0
   - flow_5_1_0_0 - flow_5_3_0_0 - flow_5_7_0_0 - flow_5_8_0_0
   - flow_5_9_0_0 - flow_5_11_0_0 - flow_5_12_0_0 - flow_5_14_0_0
   - flow_5_15_0_0 - flow_5_16_0_0 - flow_5_17_0_0 + flow_7_5_0_0
   + flow_8_5_0_0 + flow_9_5_0_0 + flow_11_5_0_0 + flow_12_5_0_0
   + flow_14_5_0_0 = 1
 one_parent_6: = 1
 consume_one_flow_unit_6: = 1
 one_parent_7: edge_0_7_0_0 + edge_1_7_0_0 + edge_3_7_0_0 + edge_5_7_0_0
   + edge_8_7_0_0 + edge_9_7_0_0 + edge_14_7_0_0 = 1
 consume_one_flow_unit_7: flow_0_7_0_0 + flow_1_7_0_0 + flow_3_7_0_0
   + flow_5_7_0_0 - flow_7_1_0_0 - flow_7_3_0_0 - flow_7_5_0_0
   - flow_7_8_0_0 - flow_7_9_0_0 - flow_7_11_0_0 - flow_7_12_0_0
   - flow_7_14_0_0 - flow_7_15_0_0 - flow_7_16_0_0 - flow_7_17_0_0
   + flow_8_7_0_0 + flow_9_7_0_0 + flow_14_7_0_0 = 1
 one_parent_8: edge_0_8_0_0 + edge_1_8_0_0 + edge_3_8_0_0 + edge_5_8_0_0
   + edge_7_8_0_0 + edge_8_8_0_0 + edge_9_8_0_0 + edge_11_8_0_0
   + edge_12_8_0_0 + edge_14_8_0_0 + edge_16_8_0_0 = 1
 consume_one_flow_unit_8: flow_0_8_0_0 + flow_1_8_0_0 + flow_3_8_0_0
   + flow_5_8_0_0 + flow_7_8_0_0 - flow_8_1_0_0 - flow_8_3_0_0
   - flow_8_5_0_0 - flow_8_7_0_0 - flow_8_9_0_0 - flow_8_11_0_0
   - flow_8_12_0_0 - flow_8_14_0_0 - flow_8_15_0_0 - flow_8_16_0_0
   - flow_8_17_0_0 + flow_9_8_0_0 + flow_11_8_0_0 + flow_12_8_0_0
   + flow_14_8_0_0 + flow_16_8_0_0 = 1
 one_parent_9: edge_0_9_0_0 + edge_1_9_0_0 + edge_3_9_0_0 + edge_5_9_0_0
   + edge_7_9_0_0 + edge_8_9_0_0 + edge_11_9_0_0 + edge_12_9_0_0
   + edge_14_9_0_0 = 1
 consume_one_flow_unit_9: flow_0_9_0_0 + flow_1_9_0_0 + flow_3_9_0_0
   + flow_5_9_0_0 + flow_7_9_0_0 + flow_8_9_0_0 - flow_9_1_0_0
   - flow_9_3_0_0 - flow_9_5_0_0 - flow_9_7_0_0 - flow_9_8_0_0
   - flow_9_11_0_0 - flow_9_12_0_0 - flow_9_14_0_0 - flow_9_15_0_0
   - flow_9_16_0_0 - flow_9_17_0_0 + flow_11_9_0_0 + flow_12_9_0_0
   + flow_14_9_0_0 = 1
 one_parent_10: = 1
 consume_one_flow_unit_10: = 1
 one_parent_11: edge_3_11_0_0 + edge_5_11_0_0 + edge_7_11_0_0
   + edge_8_11_0_0 + edge_9_11_0_0 + edge_12_11_0_0 + edge_14_11_0_0
   + edge_15_11_0_0 + edge_16_11_0_0 = 1
 consume_one_flow_unit_11: flow_3_11_0_0 + flow_5_11_0_0 + flow_7_11_0_0
   + flow_8_11_0_0 + flow_9_11_0_0 - flow_11_5_0_0 - flow_11_8_0_0
   - flow_11_9_0_0 - flow_11_12_0_0 - flow_11_14_0_0 - flow_11_15_0_0
   - flow_11_16_0_0 - flow_11_17_0_0 + flow_12_11_0_0 + flow_14_11_0_0
   + flow_15_11_0_0 + flow_16_11_0_0 = 1
 one_parent_12: edge_3_12_0_0 + edge_5_12_0_0 + edge_7_12_0_0
   + edge_8_12_0_0 + edge_9_12_0_0 + edge_11_12_0_0 + edge_14_12_0_0
   + edge_15_12_0_0 + edge_16_12_0_0 = 1
 consume_one_flow_unit_12: flow_3_12_0_0 + flow_5_12_0_0 + flow_7_12_0_0
   + flow_8_12_0_0 + flow_9_12_0_0 + flow_11_12_0_0 - flow_12_1_0_0
   - flow_12_3_0_0 - flow_12_5_0_0 - flow_12_8_0_0 - flow_12_9_0_0
   - flow_12_11_0_0 - flow_12_14_0_0 - flow_12_15_0_0 - flow_12_16_0_0
   - flow_12_17_0_0 + flow_14_12_0_0 + flow_15_12_0_0 + flow_16_12_0_0 = 1
 one_parent_13: = 1
 consume_one_flow_unit_13: = 1
 one_parent_14: edge_3_14_0_0 + edge_5_14_0_0 + edge_7_14_0_0
   + edge_8_14_0_0 + edge_9_14_0_0 + edge_11_14_0_0 + edge_12_14_0_0
   + edge_15_14_0_0 + edge_16_14_0_0 + edge_17_14_0_0 = 1
 consume_one_flow_unit_14: flow_3_14_0_0 + flow_5_14_0_0 + flow_7_14_0_0
   + flow_8_14_0_0 + flow_9_14_0_0 + flow_11_14_0_0 + flow_12_14_0_0
   - flow_14_1_0_0 - flow_14_3_0_0 - flow_14_5_0_0 - flow_14_7_0_0
   - flow_14_8_0_0 - flow_14_9_0_0 - flow_14_11_0_0 - flow_14_12_0_0
   - flow_14_15_0_0 - flow_14_16_0_0 - flow_14_17_0_0 + flow_15_14_0_0
   + flow_16_14_0_0 + flow_17_14_0_0 = 1
 one_parent_15: edge_1_15_0_0 + edge_3_15_0_0 + edge_5_15_0_0
   + edge_7_15_0_0 + edge_8_15_0_0 + edge_9_15_0_0 + edge_11_15_0_0
   + edge_12_15_0_0 + edge_14_15_0_0 + edge_16_15_0_0 = 1
 consume_one_flow_unit_15: flow_1_15_0_0 + flow_3_15_0_0 + flow_5_15_0_0
   + flow_7_15_0_0 + flow_8_15_0_0 + flow_9_15_0_0 + flow_11_15_0_0
   + flow_12_15_0_0 + flow_14_15_0_0 - flow_15_11_0_0 - flow_15_12_0_0
   - flow_15_14_0_0 - flow_15_16_0_0 + flow_16_15_0_0 = 1
 one_parent_16: edge_3_16_0_0 + edge_5_16_0_0 + edge_7_16_0_0
   + edge_8_16_0_0 + edge_9_16_0_0 + edge_11_16_0_0 + edge_12_16_0_0
   + edge_14_16_0_0 + edge_15_16_0_0 + edge_17_16_0_0 = 1
 consume_one_flow_unit_16: flow_3_16_0_0 + flow_5_16_0_0 + flow_7_16_0_0
   + flow_8_16_0_0 + flow_9_16_0_0 + flow_11_16_0_0 + flow_12_16_0_0
   + flow_14_16_0_0 + flow_15_16_0_0 - flow_16_1_0_0 - flow_16_3_0_0
   - flow_16_8_0_0 - flow_16_11_0_0 - flow_16_12_0_0 - flow_16_14_0_0
   - flow_16_15_0_0 - flow_16_17_0_0 + flow_17_16_0_0 = 1
 one_parent_17: edge_1_17_0_0 + edge_3_17_0_0 + edge_5_17_0_0
   + edge_7_17_0_0 + edge_8_17_0_0 + edge_9_17_0_0 + edge_11_17_0_0
   + edge_12_17_0_0 + edge_14_17_0_0 + edge_16_17_0_0 = 1
 consume_one_flow_unit_17: flow_1_17_0_0 + flow_3_17_0_0 + flow_5_17_0_0
   + flow_7_17_0_0 + flow_8_17_0_0 + flow_9_17_0_0 + flow_11_17_0_0
   + flow_12_17_0_0 + flow_14_17_0_0 + flow_16_17_0_0 - flow_17_14_0_0
   - flow_17_16_0_0 = 1
 root_flow: flow_0_1_0_0 + flow_0_3_0_0 + flow_0_5_0_0 + flow_0_7_0_0
   + flow_0_8_0_0 + flow_0_9_0_0 = 17
 inactive_no_flow_0_1_0_0: flow_0_1_0_0 - 1000 edge_0_1_0_0 <= 0
 inactive_no_flow_0_3_0_0: flow_0_3_0_0 - 1000 edge_0_3_0_0 <= 0
 inactive_no_flow_0_5_0_0: flow_0_5_0_0 - 1000 edge_0_5_0_0 <= 0
 inactive_no_flow_0_7_0_0: flow_0_7_0_0 - 1000 edge_0_7_0_0 <= 0
 inactive_no_flow_0_8_0_0: flow_0_8_0_0 - 1000 edge_0_8_0_0 <= 0
 inactive_no_flow_0_9_0_0: flow_0_9_0_0 - 1000 edge_0_9_0_0 <= 0
 inactive_no_flow_1_3_0_0: flow_1_3_0_0 - 1000 edge_1_3_0_0 <= 0
 inactive_no_flow_1_5_0_0: flow_1_5_0_0 - 1000 edge_1_5_0_0 <= 0
 inactive_no_flow_1_7_0_0: flow_1_7_0_0 - 1000 edge_1_7_0_0 <= 0
 inactive_no_flow_1_8_0_0: flow_1_8_0_0 - 1000 edge_1_8_0_0 <= 0
 inactive_no_flow_1_9_0_0: flow_1_9_0_0 - 1000 edge_1_9_0_0 <= 0
 inactive_no_flow_1_15_0_0: flow_1_15_0_0 - 1000 edge_1_15_0_0 <= 0
 inactive_no_flow_1_17_0_0: flow_1_17_0_0 - 1000 edge_1_17_0_0 <= 0
 inactive_no_flow_3_1_0_0: flow_3_1_0_0 - 1000 edge_3_1_0_0 <= 0
 inactive_no_flow_3_5_0_0: flow_3_5_0_0 - 1000 edge_3_5_0_0 <= 0
 inactive_no_flow_3_7_0_0: flow_3_7_0_0 - 1000 edge_3_7_0_0 <= 0
 inactive_no_flow_3_8_0_0: flow_3_8_0_0 - 1000 edge_3_8_0_0 <= 0
 inactive_no_flow_3_9_0_0: flow_3_9_0_0 - 1000 edge_3_9_0_0 <= 0
 inactive_no_flow_3_11_0_0: flow_3_11_0_0 - 1000 edge_3_11_0_0 <= 0
 inactive_no_flow_3_12_0_0: flow_3_12_0_0 - 1000 edge_3_12_0_0 <= 0
 inactive_no_flow_3_14_0_0: flow_3_14_0_0 - 1000 edge_3_14_0_0 <= 0
 inactive_no_flow_3_15_0_0: flow_3_15_0_0 - 1000 edge_3_15_0_0 <= 0
 inactive_no_flow_3_16_0_0: flow_3_16_0_0 - 1000 edge_3_16_0_0 <= 0
 inactive_no_flow_3_17_0_0: flow_3_17_0_0 - 1000 edge_3_17_0_0 <= 0
 inactive_no_flow_5_1_0_0: flow_5_1_0_0 - 1000 edge_5_1_0_0 <= 0
 inactive_no_flow_5_3_0_0: flow_5_3_0_0 - 1000 edge_5_3_0_0 <= 0
 inactive_no_flow_5_7_0_0: flow_5_7_0_0 - 1000 edge_5_7_0_0 <= 0
 inactive_no_flow_5_8_0_0: flow_5_8_0_0 - 1000 edge_5_8_0_0 <= 0
 inactive_no_flow_5_9_0_0: flow_5_9_0_0 - 1000 edge_5_9_0_0 <= 0
 inactive_no_flow_5_11_0_0: flow_5_11_0_0 - 1000 edge_5_11_0_0 <= 0
 inactive_no_flow_5_12_0_0: flow_5_12_0_0 - 1000 edge_5_12_0_0 <= 0
 inactive_no_flow_5_14_0_0: flow_5_14_0_0 - 1000 edge_5_14_0_0 <= 0
 inactive_no_flow_5_15_0_0: flow_5_15_0_0 - 1000 edge_5_15_0_0 <= 0
 inactive_no_flow_5_16_0_0: flow_5_16_0_0 - 1000 edge_5_16_0_0 <= 0
 inactive_no_flow_5_17_0_0: flow_5_17_0_0 - 1000 edge_5_17_0_0 <= 0
 inactive_no_flow_7_1_0_0: flow_7_1_0_0 - 1000 edge_7_1_0_0 <= 0
 inactive_no_flow_7_3_0_0: flow_7_3_0_0 - 1000 edge_7_3_0_0 <= 0
 inactive_no_flow_7_5_0_0: flow_7_5_0_0 - 1000 edge_7_5_0_0 <= 0
 inactive_no_flow_7_8_0_0: flow_7_8_0_0 - 1000 edge_7_8_0_0 <= 0
 inactive_no_flow_7_9_0_0: flow_7_9_0_0 - 1000 edge_7_9_0_0 <= 0
 inactive_no_flow_7_11_0_0: flow_7_11_0_0 - 1000 edge_7_11_0_0 <= 0
 inactive_no_flow_7_12_0_0: flow_7_12_0_0 - 1000 edge_7_12_0_0 <= 0
 inactive_no_flow_7_14_0_0: flow_7_14_0_0 - 1000 edge_7_14_0_0 <= 0
 inactive_no_flow_7_15_0_0: flow_7_15_0_0 - 1000 edge_7_15_0_0 <= 0
 inactive_no_flow_7_16_0_0: flow_7_16_0_0 - 1000 edge_7_16_0_0 <= 0
 inactive_no_flow_7_17_0_0: flow_7_17_0_0 - 1000 edge_7_17_0_0 <= 0
 inactive_no_flow_8_1_0_0: flow_8_1_0_0 - 1000 edge_8_1_0_0 <= 0
 inactive_no_flow_8_3_0_0: flow_8_3_0_0 - 1000 edge_8_3_0_0 <= 0
 inactive_no_flow_8_5_0_0: flow_8_5_0_0 - 1000 edge_8_5_0_0 <= 0
 inactive_no_flow_8_7_0_0: flow_8_7_0_0 - 1000 edge_8_7_0_0 <= 0
 inactive_no_flow_8_8_0_0: flow_8_8_0_0 - 1000 edge_8_8_0_0 <= 0
 inactive_no_flow_8_9_0_0: flow_8_9_0_0 - 1000 edge_8_9_0_0 <= 0
 inactive_no_flow_8_11_0_0: flow_8_11_0_0 - 1000 edge_8_11_0_0 <= 0
 inactive_no_flow_8_12_0_0: flow_8_12_0_0 - 1000 edge_8_12_0_0 <= 0
 inactive_no_flow_8_14_0_0: flow_8_14_0_0 - 1000 edge_8_14_0_0 <= 0
 inactive_no_flow_8_15_0_0: flow_8_15_0_0 - 1000 edge_8_15_0_0 <= 0
 inactive_no_flow_8_16_0_0: flow_8_16_0_0 - 1000 edge_8_16_0_0 <= 0
 inactive_no_flow_8_17_0_0: flow_8_17_0_0 - 1000 edge_8_17_0_0 <= 0
 inactive_no_flow_9_1_0_0: flow_9_1_0_0 - 1000 edge_9_1_0_0 <= 0
 inactive_no_flow_9_3_0_0: flow_9_3_0_0 - 1000 edge_9_3_0_0 <= 0
 inactive_no_flow_9_5_0_0: flow_9_5_0_0 - 1000 edge_9_5_0_0 <= 0
 inactive_no_flow_9_7_0_0: flow_9_7_0_0 - 1000 edge_9_7_0_0 <= 0
 inactive_no_flow_9_8_0_0: flow_9_8_0_0 - 1000 edge_9_8_0_0 <= 0
 inactive_no_flow_9_11_0_0: flow_9_11_0_0 - 1000 edge_9_11_0_0 <= 0
 inactive_no_flow_9_12_0_0: flow_9_12_0_0 - 1000 edge_9_12_0_0 <= 0
 inactive_no_flow_9_14_0_0: flow_9_14_0_0 - 1000 edge_9_14_0_0 <= 0
 inactive_no_flow_9_15_0_0: flow_9_15_0_0 - 1000 edge_9_15_0_0 <= 0
 inactive_no_flow_9_16_0_0: flow_9_16_0_0 - 1000 edge_9_16_0_0 <= 0
 inactive_no_flow_9_17_0_0: flow_9_17_0_0 - 1000 edge_9_17_0_0 <= 0
 inactive_no_flow_11_5_0_0: flow_11_5_0_0 - 1000 edge_11_5_0_0 <= 0
 inactive_no_flow_11_8_0_0: flow_11_8_0_0 - 1000 edge_11_8_0_0 <= 0
 inactive_no_flow_11_9_0_0: flow_11_9_0_0 - 1000 edge_11_9_0_0 <= 0
 inactive_no_flow_11_12_0_0: flow_11_12_0_0 - 1000 edge_11_12_0_0 <= 0
 inactive_no_flow_11_14_0_0: flow_11_14_0_0 - 1000 edge_11_14_0_0 <= 0
 inactive_no_flow_11_15_0_0: flow_11_15_0_0 - 1000 edge_11_15_0_0 <= 0
 inactive_no_flow_11_16_0_0: flow_11_16_0_0 - 1000 edge_11_16_0_0 <= 0
 inactive_no_flow_11_17_0_0: flow_11_17_0_0 - 1000 edge_11_17_0_0 <= 0
 inactive_no_flow_12_1_0_0: flow_12_1_0_0 - 1000 edge_12_1_0_0 <= 0
 inactive_no_flow_12_3_0_0: flow_12_3_0_0 - 1000 edge_12_3_0_0 <= 0
 inactive_no_flow_12_5_0_0: flow_12_5_0_0 - 1000 edge_12_5_0_0 <= 0
 inactive_no_flow_12_8_0_0: flow_12_8_0_0 - 1000 edge_12_8_0_0 <= 0
 inactive_no_flow_12_9_0_0: flow_12_9_0_0 - 1000 edge_12_9_0_0 <= 0
 inactive_no_flow_12_11_0_0: flow_12_11_0_0 - 1000 edge_12_11_0_0 <= 0
 inactive_no_flow_12_14_0_0: flow_12_14_0_0 - 1000 edge_12_14_0_0 <= 0
 inactive_no_flow_12_15_0_0: flow_12_15_0_0 - 1000 edge_12_15_0_0 <= 0
 inactive_no_flow_12_16_0_0: flow_12_16_0_0 - 1000 edge_12_16_0_0 <= 0
 inactive_no_flow_12_17_0_0: flow_12_17_0_0 - 1000 edge_12_17_0_0 <= 0
 inactive_no_flow_14_1_0_0: flow_14_1_0_0 - 1000 edge_14_1_0_0 <= 0
 inactive_no_flow_14_3_0_0: flow_14_3_0_0 - 1000 edge_14_3_0_0 <= 0
 inactive_no_flow_14_5_0_0: flow_14_5_0_0 - 1000 edge_14_5_0_0 <= 0
 inactive_no_flow_14_7_0_0: flow_14_7_0_0 - 1000 edge_14_7_0_0 <= 0
 inactive_no_flow_14_8_0_0: flow_14_8_0_0 - 1000 edge_14_8_0_0 <= 0
 inactive_no_flow_14_9_0_0: flow_14_9_0_0 - 1000 edge_14_9_0_0 <= 0
 inactive_no_flow_14_11_0_0: flow_14_11_0_0 - 1000 edge_14_11_0_0 <= 0
 inactive_no_flow_14_12_0_0: flow_14_12_0_0 - 1000 edge_14_12_0_0 <= 0
 inactive_no_flow_14_15_0_0: flow_14_15_0_0 - 1000 edge_14_15_0_0 <= 0
 inactive_no_flow_14_16_0_0: flow_14_16_0_0 - 1000 edge_14_16_0_0 <= 0
 inactive_no_flow_14_17_0_0: flow_14_17_0_0 - 1000 edge_14_17_0_0 <= 0
 inactive_no_flow_15_11_0_0: flow_15_11_0_0 - 1000 edge_15_11_0_0 <= 0
 inactive_no_flow_15_12_0_0: flow_15_12_0_0 - 1000 edge_15_12_0_0 <= 0
 inactive_no_flow_15_14_0_0: flow_15_14_0_0 - 1000 edge_15_14_0_0 <= 0
 inactive_no_flow_15_16_0_0: flow_15_16_0_0 - 1000 edge_15_16_0_0 <= 0
 inactive_no_flow_16_1_0_0: flow_16_1_0_0 - 1000 edge_16_1_0_0 <= 0
 inactive_no_flow_16_3_0_0: flow_16_3_0_0 - 1000 edge_16_3_0_0 <= 0
 inactive_no_flow_16_8_0_0: flow_16_8_0_0 - 1000 edge_16_8_0_0 <= 0
 inactive_no_flow_16_11_0_0: flow_16_11_0_0 - 1000 edge_16_11_0_0 <= 0
 inactive_no_flow_16_12_0_0: flow_16_12_0_0 - 1000 edge_16_12_0_0 <= 0
 inactive_no_flow_16_14_0_0: flow_16_14_0_0 - 1000 edge_16_14_0_0 <= 0
 inactive_no_flow_16_15_0_0: flow_16_15_0_0 - 1000 edge_16_15_0_0 <= 0
 inactive_no_flow_16_17_0_0: flow_16_17_0_0 - 1000 edge_16_17_0_0 <= 0
 inactive_no_flow_17_14_0_0: flow_17_14_0_0 - 1000 edge_17_14_0_0 <= 0
 inactive_no_flow_17_16_0_0: flow_17_16_0_0 - 1000 edge_17_16_0_0 <= 0
Bounds
Binaries
 edge_0_1_0_0 edge_0_3_0_0 edge_0_5_0_0 edge_0_7_0_0 edge_0_8_0_0
 edge_0_9_0_0 edge_1_3_0_0 edge_1_5_0_0 edge_1_7_0_0 edge_1_8_0_0
 edge_1_9_0_0 edge_1_15_0_0 edge_1_17_0_0 edge_3_1_0_0 edge_3_5_0_0
 edge_3_7_0_0 edge_3_8_0_0 edge_3_9_0_0 edge_3_11_0_0 edge_3_12_0_0
 edge_3_14_0_0 edge_3_15_0_0 edge_3_16_0_0 edge_3_17_0_0 edge_5_1_0_0
 edge_5_3_0_0 edge_5_7_0_0 edge_5_8_0_0 edge_5_9_0_0 edge_5_11_0_0
 edge_5_12_0_0 edge_5_14_0_0 edge_5_15_0_0 edge_5_16_0_0 edge_5_17_0_0
 edge_7_1_0_0 edge_7_3_0_0 edge_7_5_0_0 edge_7_8_0_0 edge_7_9_0_0
 edge_7_11_0_0 edge_7_12_0_0 edge_7_14_0_0 edge_7_15_0_0 edge_7_16_0_0
 edge_7_17_0_0 edge_8_1_0_0 edge_8_3_0_0 edge_8_5_0_0 edge_8_7_0_0
 edge_8_8_0_0 edge_8_9_0_0 edge_8_11_0_0 edge_8_12_0_0 edge_8_14_0_0
 edge_8_15_0_0 edge_8_16_0_0 edge_8_17_0_0 edge_9_1_0_0 edge_9_3_0_0
 edge_9_5_0_0 edge_9_7_0_0 edge_9_8_0_0 edge_9_11_0_0 edge_9_12_0_0
 edge_9_14_0_0 edge_9_15_0_0 edge_9_16_0_0 edge_9_17_0_0 edge_11_5_0_0
 edge_11_8_0_0 edge_11_9_0_0 edge_11_12_0_0 edge_11_14_0_0 edge_11_15_0_0
 edge_11_16_0_0 edge_11_17_0_0 edge_12_1_0_0 edge_12_3_0_0 edge_12_5_0_0
 edge_12_8_0_0 edge_12_9_0_0 edge_12_11_0_0 edge_12_14_0_0 edge_12_15_0_0
 edge_12_16_0_0 edge_12_17_0_0 edge_14_1_0_0 edge_14_3_0_0 edge_14_5_0_0
 edge_14_7_0_0 edge_14_8_0_0 edge_14_9_0_0 edge_14_11_0_0 edge_14_12_0_0
 edge_14_15_0_0 edge_14_16_0_0 edge_14_17_0_0 edge_15_11_0_0 edge_15_12_0_0
 edge_15_14_0_0 edge_15_16_0_0 edge_16_1_0_0 edge_16_3_0_0 edge_16_8_0_0
 edge_16_11_0_0 edge_16_12_0_0 edge_16_14_0_0 edge_16_15_0_0 edge_16_17_0_0
 edge_17_14_0_0 edge_17_16_0_0
End
